32	0

0	1	2
1	2	3	4
8	1	5
6	1	5
1	1	6
2	1	7
2	1	8
9	2	9	11
3	1	10
9	1	12
10	1	12
4	2	13	15
2	1	14
2	1	16
4	1	16
6	1	17
6	3	18	19	20
8	2	21	22
3	3	21	22	23
8	2	21	22
6	1	24
5	1	24
10	1	24
1	2	25	26
9	1	28
4	1	27
5	1	28
10	1	29
10	1	30
5	1	31
2	1	32
0	0
